(set-logic QF_S)
(declare-fun var0 () String)
(assert (RegexIn var0 (RegexConcat (RegexStar (RegexStar (Str2Reg "000"))) (RegexConcat (RegexPlus (RegexUnion (Str2Reg "1") (Str2Reg "22"))) (RegexConcat (RegexPlus (RegexStar (Str2Reg "3"))) (RegexConcat (RegexPlus (RegexPlus (Str2Reg "44"))) (RegexConcat (RegexPlus (RegexPlus (Str2Reg "555"))) (RegexConcat (RegexStar (RegexPlus (Str2Reg "666"))) (RegexConcat (RegexStar (RegexStar (Str2Reg "77"))) (RegexConcat (RegexUnion (RegexStar (Str2Reg "88")) (RegexStar (Str2Reg "9"))) (RegexConcat (RegexPlus (RegexStar (Str2Reg "aa"))) (RegexConcat (RegexStar (RegexPlus (Str2Reg "bb"))) (RegexConcat (RegexStar (RegexUnion (Str2Reg "ccc") (Str2Reg "dd"))) (RegexConcat (RegexUnion (RegexStar (Str2Reg "e")) (RegexStar (Str2Reg "ff"))) (RegexConcat (RegexStar (RegexUnion (Str2Reg "ggg") (Str2Reg "hhh"))) (RegexConcat (RegexUnion (RegexPlus (Str2Reg "ii")) (RegexPlus (Str2Reg "j"))) (RegexConcat (RegexUnion (RegexUnion (Str2Reg "kkk") (Str2Reg "ll")) (RegexUnion (Str2Reg "mm") (Str2Reg "nnn"))) (RegexConcat (RegexStar (RegexStar (Str2Reg "ooo"))) (RegexConcat (RegexStar (RegexPlus (Str2Reg "p"))) (RegexConcat (RegexUnion (RegexPlus (Str2Reg "qqq")) (RegexPlus (Str2Reg "r"))) (RegexConcat (RegexStar (RegexUnion (Str2Reg "sss") (Str2Reg "ttt"))) (RegexConcat (RegexPlus (RegexStar (Str2Reg "u"))) (RegexConcat (RegexPlus (RegexPlus (Str2Reg "vvv"))) (RegexConcat (RegexStar (RegexStar (Str2Reg "ww"))) (RegexConcat (RegexUnion (RegexStar (Str2Reg "x")) (RegexStar (Str2Reg "yy"))) (RegexConcat (RegexStar (RegexStar (Str2Reg "zzz"))) (RegexConcat (RegexPlus (RegexPlus (Str2Reg "AAA"))) (RegexConcat (RegexUnion (RegexPlus (Str2Reg "BBB")) (RegexPlus (Str2Reg "CCC"))) (RegexConcat (RegexUnion (RegexStar (Str2Reg "D")) (RegexStar (Str2Reg "EEE"))) (RegexConcat (RegexStar (RegexPlus (Str2Reg "F"))) (RegexConcat (RegexUnion (RegexUnion (Str2Reg "GGG") (Str2Reg "HHH")) (RegexUnion (Str2Reg "II") (Str2Reg "J"))) (RegexConcat (RegexPlus (RegexStar (Str2Reg "KK"))) (RegexConcat (RegexPlus (RegexStar (Str2Reg "LLL"))) (RegexConcat (RegexPlus (RegexStar (Str2Reg "MM"))) (RegexConcat (RegexUnion (RegexPlus (Str2Reg "NNN")) (RegexPlus (Str2Reg "OO"))) (RegexConcat (RegexUnion (RegexPlus (Str2Reg "P")) (RegexPlus (Str2Reg "QQ"))) (RegexConcat (RegexStar (RegexUnion (Str2Reg "R") (Str2Reg "SSS"))) (RegexConcat (RegexUnion (RegexStar (Str2Reg "T")) (RegexStar (Str2Reg "UU"))) (RegexConcat (RegexStar (RegexUnion (Str2Reg "VVV") (Str2Reg "W"))) (RegexConcat (RegexPlus (RegexPlus (Str2Reg "X"))) (RegexConcat (RegexPlus (RegexStar (Str2Reg "YY"))) (RegexConcat (RegexStar (RegexUnion (Str2Reg "ZZZ") (Str2Reg "!!"))) (RegexConcat (RegexUnion (RegexStar (Str2Reg "\"")) (RegexStar (Str2Reg "##"))) (RegexConcat (RegexUnion (RegexPlus (Str2Reg "$$$")) (RegexPlus (Str2Reg "%%%"))) (RegexConcat (RegexStar (RegexStar (Str2Reg "&&"))) (RegexConcat (RegexPlus (RegexStar (Str2Reg "'"))) (RegexConcat (RegexStar (RegexStar (Str2Reg "(("))) (RegexConcat (RegexUnion (RegexPlus (Str2Reg ")))")) (RegexPlus (Str2Reg "**"))) (RegexConcat (RegexPlus (RegexUnion (Str2Reg "+") (Str2Reg ",,"))) (RegexConcat (RegexPlus (RegexStar (Str2Reg "-"))) (RegexConcat (RegexUnion (RegexUnion (Str2Reg "..") (Str2Reg "///")) (RegexUnion (Str2Reg ":::") (Str2Reg ";;"))) (RegexConcat (RegexPlus (RegexUnion (Str2Reg "<<") (Str2Reg "==="))) (RegexConcat (RegexPlus (RegexStar (Str2Reg ">"))) (RegexConcat (RegexUnion (RegexUnion (Str2Reg "??") (Str2Reg "@@")) (RegexUnion (Str2Reg "[[[") (Str2Reg "\\"))) (RegexConcat (RegexStar (RegexStar (Str2Reg "]]]"))) (RegexConcat (RegexUnion (RegexStar (Str2Reg "^^^")) (RegexStar (Str2Reg "___"))) (RegexConcat (RegexStar (RegexStar (Str2Reg "`"))) (RegexConcat (RegexStar (RegexUnion (Str2Reg "{") (Str2Reg "||"))) (RegexPlus (RegexStar (Str2Reg "}}}")))))))))))))))))))))))))))))))))))))))))))))))))))))))))))))
(check-sat)